p cnf 2580
-15 -224
-16 -79
-17 -82
-18 -85
-19 -88
-20 -91
-21 -94
-22 -97
-23 -261
-24 -267
-25 -273
-26 -279
-27 -285
-28 -291
-29 -297
-30 -322
-31 -341
-32 -359
-33 -369
-34 -388
-35 -407
-36 -425
-37 -435
-38 -454
-39 -473
-40 -491
-41 -501
-42 -520
-43 -539
-44 -557
-45 -567
-46 -586
-47 -605
-48 -623
-49 -633
-50 -652
-51 -671
-52 -689
-53 -699
-54 -718
-55 -737
-56 -755
-57 -765
-58 -811
-59 1
-59 -23
-1 23 59
-60 2
-60 -24
-2 24 60
-61 3
-61 -25
-3 25 61
-62 4
-62 -26
-4 26 62
-63 5
-63 -27
-5 27 63
-64 6
-64 -28
-6 28 64
-65 7
-65 -29
-7 29 65
-66 -59
-66 60
59 -60 66
-67 -59
-67 -66
59 66 67
-68 61
-68 67
-61 -67 68
-69 67
-69 -68
-67 68 69
-70 62
-70 69
-62 -69 70
-71 69
-71 -70
-69 70 71
-72 63
-72 71
-63 -71 72
-73 71
-73 -72
-71 72 73
-74 64
-74 73
-64 -73 74
-75 73
-75 -74
-73 74 75
-76 65
-76 75
-65 -75 76
-77 -15
-77 59
15 -59 77
-78 15
-78 16
-15 -16 78
-79 -77
-79 -78
77 78 79
-80 -15
-80 66
15 -66 80
-81 15
-81 17
-15 -17 81
-82 -80
-82 -81
80 81 82
-83 -15
-83 68
15 -68 83
-84 15
-84 18
-15 -18 84
-85 -83
-85 -84
83 84 85
-86 -15
-86 70
15 -70 86
-87 15
-87 19
-15 -19 87
-88 -86
-88 -87
86 87 88
-89 -15
-89 72
15 -72 89
-90 15
-90 20
-15 -20 90
-91 -89
-91 -90
89 90 91
-92 -15
-92 74
15 -74 92
-93 15
-93 21
-15 -21 93
-94 -92
-94 -93
92 93 94
-95 -15
-95 76
15 -76 95
-96 15
-96 22
-15 -22 96
-97 -95
-97 -96
95 96 97
-98 1
-98 -79
-1 79 98
-99 2
-99 -82
-2 82 99
-100 3
-100 -85
-3 85 100
-101 4
-101 -88
-4 88 101
-102 5
-102 -91
-5 91 102
-103 6
-103 -94
-6 94 103
-104 7
-104 -97
-7 97 104
-105 30
-105 -31
-30 31 105
-106 -32
-106 -33
32 33 106
-107 105
-107 106
-105 -106 107
-108 -30
-108 -31
30 31 108
-109 -32
-109 33
32 -33 109
-110 108
-110 109
-108 -109 110
-111 -107
-111 -110
107 110 111
-112 98
-112 -111
-98 111 112
-113 34
-113 -35
-34 35 113
-114 -36
-114 -37
36 37 114
-115 113
-115 114
-113 -114 115
-116 -34
-116 -35
34 35 116
-117 -36
-117 37
36 -37 117
-118 116
-118 117
-116 -117 118
-119 -115
-119 -118
115 118 119
-120 99
-120 -119
-99 119 120
-121 38
-121 -39
-38 39 121
-122 -40
-122 -41
40 41 122
-123 121
-123 122
-121 -122 123
-124 -38
-124 -39
38 39 124
-125 -40
-125 41
40 -41 125
-126 124
-126 125
-124 -125 126
-127 -123
-127 -126
123 126 127
-128 100
-128 -127
-100 127 128
-129 42
-129 -43
-42 43 129
-130 -44
-130 -45
44 45 130
-131 129
-131 130
-129 -130 131
-132 -42
-132 -43
42 43 132
-133 -44
-133 45
44 -45 133
-134 132
-134 133
-132 -133 134
-135 -131
-135 -134
131 134 135
-136 101
-136 -135
-101 135 136
-137 46
-137 -47
-46 47 137
-138 -48
-138 -49
48 49 138
-139 137
-139 138
-137 -138 139
-140 -46
-140 -47
46 47 140
-141 -48
-141 49
48 -49 141
-142 140
-142 141
-140 -141 142
-143 -139
-143 -142
139 142 143
-144 102
-144 -143
-102 143 144
-145 50
-145 -51
-50 51 145
-146 -52
-146 -53
52 53 146
-147 145
-147 146
-145 -146 147
-148 -50
-148 -51
50 51 148
-149 -52
-149 53
52 -53 149
-150 148
-150 149
-148 -149 150
-151 -147
-151 -150
147 150 151
-152 103
-152 -151
-103 151 152
-153 54
-153 -55
-54 55 153
-154 -56
-154 -57
56 57 154
-155 153
-155 154
-153 -154 155
-156 -54
-156 -55
54 55 156
-157 -56
-157 57
56 -57 157
-158 156
-158 157
-156 -157 158
-159 -155
-159 -158
155 158 159
-160 104
-160 -159
-104 159 160
-161 -112
-161 -120
112 120 161
-162 -128
-162 -136
128 136 162
-163 -144
-163 -152
144 152 163
-164 161
-164 162
-161 -162 164
-165 -160
-165 163
160 -163 165
-166 164
-166 165
-164 -165 166
-167 -30
-167 31
30 -31 167
-168 32
-168 -33
-32 33 168
-169 167
-169 168
-167 -168 169
-170 32
-170 33
-32 -33 170
-171 105
-171 170
-105 -170 171
-172 -169
-172 -171
169 171 172
-173 98
-173 -172
-98 172 173
-174 -34
-174 35
34 -35 174
-175 36
-175 -37
-36 37 175
-176 174
-176 175
-174 -175 176
-177 36
-177 37
-36 -37 177
-178 113
-178 177
-113 -177 178
-179 -176
-179 -178
176 178 179
-180 99
-180 -179
-99 179 180
-181 -38
-181 39
38 -39 181
-182 40
-182 -41
-40 41 182
-183 181
-183 182
-181 -182 183
-184 40
-184 41
-40 -41 184
-185 121
-185 184
-121 -184 185
-186 -183
-186 -185
183 185 186
-187 100
-187 -186
-100 186 187
-188 -42
-188 43
42 -43 188
-189 44
-189 -45
-44 45 189
-190 188
-190 189
-188 -189 190
-191 44
-191 45
-44 -45 191
-192 129
-192 191
-129 -191 192
-193 -190
-193 -192
190 192 193
-194 101
-194 -193
-101 193 194
-195 -46
-195 47
46 -47 195
-196 48
-196 -49
-48 49 196
-197 195
-197 196
-195 -196 197
-198 48
-198 49
-48 -49 198
-199 137
-199 198
-137 -198 199
-200 -197
-200 -199
197 199 200
-201 102
-201 -200
-102 200 201
-202 -50
-202 51
50 -51 202
-203 52
-203 -53
-52 53 203
-204 202
-204 203
-202 -203 204
-205 52
-205 53
-52 -53 205
-206 145
-206 205
-145 -205 206
-207 -204
-207 -206
204 206 207
-208 103
-208 -207
-103 207 208
-209 -54
-209 55
54 -55 209
-210 56
-210 -57
-56 57 210
-211 209
-211 210
-209 -210 211
-212 56
-212 57
-56 -57 212
-213 153
-213 212
-153 -212 213
-214 -211
-214 -213
211 213 214
-215 104
-215 -214
-104 214 215
-216 -173
-216 -180
173 180 216
-217 -187
-217 -194
187 194 217
-218 -201
-218 -208
201 208 218
-219 216
-219 217
-216 -217 219
-220 -215
-220 218
215 -218 220
-221 219
-221 220
-219 -220 221
-222 15
-222 221
-15 -221 222
-223 166
-223 222
-166 -222 223
-224 166
-224 -223
-166 223 224
-225 -23
-225 24
23 -24 225
-226 -23
-226 -225
23 225 226
-227 25
-227 226
-25 -226 227
-228 226
-228 -227
-226 227 228
-229 26
-229 228
-26 -228 229
-230 228
-230 -229
-228 229 230
-231 27
-231 230
-27 -230 231
-232 230
-232 -231
-230 231 232
-233 28
-233 232
-28 -232 233
-234 232
-234 -233
-232 233 234
-235 29
-235 234
-29 -234 235
-236 108
-236 170
-108 -170 236
-237 98
-237 236
-98 -236 237
-238 116
-238 177
-116 -177 238
-239 99
-239 238
-99 -238 239
-240 124
-240 184
-124 -184 240
-241 100
-241 240
-100 -240 241
-242 132
-242 191
-132 -191 242
-243 101
-243 242
-101 -242 243
-244 140
-244 198
-140 -198 244
-245 102
-245 244
-102 -244 245
-246 148
-246 205
-148 -205 246
-247 103
-247 246
-103 -246 247
-248 156
-248 212
-156 -212 248
-249 104
-249 248
-104 -248 249
-250 -237
-250 -239
237 239 250
-251 -241
-251 -243
241 243 251
-252 -245
-252 -247
245 247 252
-253 250
-253 251
-250 -251 253
-254 -249
-254 252
249 -252 254
-255 253
-255 254
-253 -254 255
-256 105
-256 168
-105 -168 256
-257 98
-257 256
-98 -256 257
-258 23
-258 -255
-23 255 258
-259 23
-259 -258
-23 258 259
-260 -257
-260 259
257 -259 260
-261 -257
-261 -260
257 260 261
-262 113
-262 175
-113 -175 262
-263 99
-263 262
-99 -262 263
-264 225
-264 -255
-225 255 264
-265 24
-265 -264
-24 264 265
-266 -263
-266 265
263 -265 266
-267 -263
-267 -266
263 266 267
-268 121
-268 182
-121 -182 268
-269 100
-269 268
-100 -268 269
-270 227
-270 -255
-227 255 270
-271 25
-271 -270
-25 270 271
-272 -269
-272 271
269 -271 272
-273 -269
-273 -272
269 272 273
-274 129
-274 189
-129 -189 274
-275 101
-275 274
-101 -274 275
-276 229
-276 -255
-229 255 276
-277 26
-277 -276
-26 276 277
-278 -275
-278 277
275 -277 278
-279 -275
-279 -278
275 278 279
-280 137
-280 196
-137 -196 280
-281 102
-281 280
-102 -280 281
-282 231
-282 -255
-231 255 282
-283 27
-283 -282
-27 282 283
-284 -281
-284 283
281 -283 284
-285 -281
-285 -284
281 284 285
-286 145
-286 203
-145 -203 286
-287 103
-287 286
-103 -286 287
-288 233
-288 -255
-233 255 288
-289 28
-289 -288
-28 288 289
-290 -287
-290 289
287 -289 290
-291 -287
-291 -290
287 290 291
-292 153
-292 210
-153 -210 292
-293 104
-293 292
-104 -292 293
-294 235
-294 -255
-235 255 294
-295 29
-295 -294
-29 294 295
-296 -293
-296 295
293 -295 296
-297 -293
-297 -296
293 296 297
-298 -23
-298 -24
23 24 298
-299 -25
-299 -26
25 26 299
-300 -27
-300 -28
27 28 300
-301 298
-301 299
-298 -299 301
-302 -29
-302 300
29 -300 302
-303 301
-303 302
-301 -302 303
-304 -31
-304 -108
31 108 304
-305 32
-305 108
-32 -108 305
-306 -32
-306 -304
32 304 306
-307 -305
-307 -306
305 306 307
-308 -8
-308 30
8 -30 308
-309 30
-309 -308
-30 308 309
-310 31
-310 -309
-31 309 310
-311 8
-311 -30
-8 30 311
-312 -31
-312 311
31 -311 312
-313 -167
-313 -312
167 312 313
-314 32
-314 310
-32 -310 314
-315 -32
-315 -313
32 313 315
-316 -314
-316 -315
314 315 316
-317 33
-317 -307
-33 307 317
-318 -33
-318 -316
33 316 318
-319 -317
-319 -318
317 318 319
-320 98
-320 -319
-98 319 320
-321 30
-321 -98
-30 98 321
-322 -320
-322 -321
320 321 322
-323 30
-323 303
-30 -303 323
-324 -31
-324 323
31 -323 324
-325 -167
-325 -324
167 324 325
-326 32
-326 105
-32 -105 326
-327 -32
-327 -325
32 325 327
-328 -326
-328 -327
326 327 328
-329 31
-329 -310
-31 310 329
-330 -30
-330 -58
30 58 330
-331 31
-331 330
-31 -330 331
-332 -105
-332 -331
105 331 332
-333 32
-333 -329
-32 329 333
-334 -32
-334 -332
32 332 334
-335 -333
-335 -334
333 334 335
-336 33
-336 -328
-33 328 336
-337 -33
-337 -335
33 335 337
-338 -336
-338 -337
336 337 338
-339 98
-339 -338
-98 338 339
-340 31
-340 -98
-31 98 340
-341 -339
-341 -340
339 340 341
-342 30
-342 -303
-30 303 342
-343 30
-343 31
-30 -31 343
-344 -31
-344 342
31 -342 344
-345 -343
-345 -344
343 344 345
-346 -31
-346 32
31 -32 346
-347 -32
-347 -345
32 345 347
-348 -346
-348 -347
346 347 348
-349 -30
-349 58
30 -58 349
-350 -30
-350 -349
30 349 350
-351 31
-351 -350
-31 350 351
-352 -32
-352 351
32 -351 352
-353 -333
-353 -352
333 352 353
-354 33
-354 -348
-33 348 354
-355 -33
-355 -353
33 353 355
-356 -354
-356 -355
354 355 356
-357 98
-357 -356
-98 356 357
-358 32
-358 -98
-32 98 358
-359 -357
-359 -358
357 358 359
-360 32
-360 -346
-32 346 360
-361 8
-361 30
-8 -30 361
-362 31
-362 361
-31 -361 362
-363 32
-363 362
-32 -362 363
-364 33
-364 -360
-33 360 364
-365 -33
-365 363
33 -363 365
-366 -364
-366 -365
364 365 366
-367 98
-367 -366
-98 366 367
-368 33
-368 -98
-33 98 368
-369 -367
-369 -368
367 368 369
-370 -35
-370 -116
35 116 370
-371 36
-371 116
-36 -116 371
-372 -36
-372 -370
36 370 372
-373 -371
-373 -372
371 372 373
-374 -9
-374 34
9 -34 374
-375 34
-375 -374
-34 374 375
-376 35
-376 -375
-35 375 376
-377 9
-377 -34
-9 34 377
-378 -35
-378 377
35 -377 378
-379 -174
-379 -378
174 378 379
-380 36
-380 376
-36 -376 380
-381 -36
-381 -379
36 379 381
-382 -380
-382 -381
380 381 382
-383 37
-383 -373
-37 373 383
-384 -37
-384 -382
37 382 384
-385 -383
-385 -384
383 384 385
-386 99
-386 -385
-99 385 386
-387 34
-387 -99
-34 99 387
-388 -386
-388 -387
386 387 388
-389 34
-389 303
-34 -303 389
-390 -35
-390 389
35 -389 390
-391 -174
-391 -390
174 390 391
-392 36
-392 113
-36 -113 392
-393 -36
-393 -391
36 391 393
-394 -392
-394 -393
392 393 394
-395 35
-395 -376
-35 376 395
-396 -34
-396 -58
34 58 396
-397 35
-397 396
-35 -396 397
-398 -113
-398 -397
113 397 398
-399 36
-399 -395
-36 395 399
-400 -36
-400 -398
36 398 400
-401 -399
-401 -400
399 400 401
-402 37
-402 -394
-37 394 402
-403 -37
-403 -401
37 401 403
-404 -402
-404 -403
402 403 404
-405 99
-405 -404
-99 404 405
-406 35
-406 -99
-35 99 406
-407 -405
-407 -406
405 406 407
-408 34
-408 -303
-34 303 408
-409 34
-409 35
-34 -35 409
-410 -35
-410 408
35 -408 410
-411 -409
-411 -410
409 410 411
-412 -35
-412 36
35 -36 412
-413 -36
-413 -411
36 411 413
-414 -412
-414 -413
412 413 414
-415 -34
-415 58
34 -58 415
-416 -34
-416 -415
34 415 416
-417 35
-417 -416
-35 416 417
-418 -36
-418 417
36 -417 418
-419 -399
-419 -418
399 418 419
-420 37
-420 -414
-37 414 420
-421 -37
-421 -419
37 419 421
-422 -420
-422 -421
420 421 422
-423 99
-423 -422
-99 422 423
-424 36
-424 -99
-36 99 424
-425 -423
-425 -424
423 424 425
-426 36
-426 -412
-36 412 426
-427 9
-427 34
-9 -34 427
-428 35
-428 427
-35 -427 428
-429 36
-429 428
-36 -428 429
-430 37
-430 -426
-37 426 430
-431 -37
-431 429
37 -429 431
-432 -430
-432 -431
430 431 432
-433 99
-433 -432
-99 432 433
-434 37
-434 -99
-37 99 434
-435 -433
-435 -434
433 434 435
-436 -39
-436 -124
39 124 436
-437 40
-437 124
-40 -124 437
-438 -40
-438 -436
40 436 438
-439 -437
-439 -438
437 438 439
-440 -10
-440 38
10 -38 440
-441 38
-441 -440
-38 440 441
-442 39
-442 -441
-39 441 442
-443 10
-443 -38
-10 38 443
-444 -39
-444 443
39 -443 444
-445 -181
-445 -444
181 444 445
-446 40
-446 442
-40 -442 446
-447 -40
-447 -445
40 445 447
-448 -446
-448 -447
446 447 448
-449 41
-449 -439
-41 439 449
-450 -41
-450 -448
41 448 450
-451 -449
-451 -450
449 450 451
-452 100
-452 -451
-100 451 452
-453 38
-453 -100
-38 100 453
-454 -452
-454 -453
452 453 454
-455 38
-455 303
-38 -303 455
-456 -39
-456 455
39 -455 456
-457 -181
-457 -456
181 456 457
-458 40
-458 121
-40 -121 458
-459 -40
-459 -457
40 457 459
-460 -458
-460 -459
458 459 460
-461 39
-461 -442
-39 442 461
-462 -38
-462 -58
38 58 462
-463 39
-463 462
-39 -462 463
-464 -121
-464 -463
121 463 464
-465 40
-465 -461
-40 461 465
-466 -40
-466 -464
40 464 466
-467 -465
-467 -466
465 466 467
-468 41
-468 -460
-41 460 468
-469 -41
-469 -467
41 467 469
-470 -468
-470 -469
468 469 470
-471 100
-471 -470
-100 470 471
-472 39
-472 -100
-39 100 472
-473 -471
-473 -472
471 472 473
-474 38
-474 -303
-38 303 474
-475 38
-475 39
-38 -39 475
-476 -39
-476 474
39 -474 476
-477 -475
-477 -476
475 476 477
-478 -39
-478 40
39 -40 478
-479 -40
-479 -477
40 477 479
-480 -478
-480 -479
478 479 480
-481 -38
-481 58
38 -58 481
-482 -38
-482 -481
38 481 482
-483 39
-483 -482
-39 482 483
-484 -40
-484 483
40 -483 484
-485 -465
-485 -484
465 484 485
-486 41
-486 -480
-41 480 486
-487 -41
-487 -485
41 485 487
-488 -486
-488 -487
486 487 488
-489 100
-489 -488
-100 488 489
-490 40
-490 -100
-40 100 490
-491 -489
-491 -490
489 490 491
-492 40
-492 -478
-40 478 492
-493 10
-493 38
-10 -38 493
-494 39
-494 493
-39 -493 494
-495 40
-495 494
-40 -494 495
-496 41
-496 -492
-41 492 496
-497 -41
-497 495
41 -495 497
-498 -496
-498 -497
496 497 498
-499 100
-499 -498
-100 498 499
-500 41
-500 -100
-41 100 500
-501 -499
-501 -500
499 500 501
-502 -43
-502 -132
43 132 502
-503 44
-503 132
-44 -132 503
-504 -44
-504 -502
44 502 504
-505 -503
-505 -504
503 504 505
-506 -11
-506 42
11 -42 506
-507 42
-507 -506
-42 506 507
-508 43
-508 -507
-43 507 508
-509 11
-509 -42
-11 42 509
-510 -43
-510 509
43 -509 510
-511 -188
-511 -510
188 510 511
-512 44
-512 508
-44 -508 512
-513 -44
-513 -511
44 511 513
-514 -512
-514 -513
512 513 514
-515 45
-515 -505
-45 505 515
-516 -45
-516 -514
45 514 516
-517 -515
-517 -516
515 516 517
-518 101
-518 -517
-101 517 518
-519 42
-519 -101
-42 101 519
-520 -518
-520 -519
518 519 520
-521 42
-521 303
-42 -303 521
-522 -43
-522 521
43 -521 522
-523 -188
-523 -522
188 522 523
-524 44
-524 129
-44 -129 524
-525 -44
-525 -523
44 523 525
-526 -524
-526 -525
524 525 526
-527 43
-527 -508
-43 508 527
-528 -42
-528 -58
42 58 528
-529 43
-529 528
-43 -528 529
-530 -129
-530 -529
129 529 530
-531 44
-531 -527
-44 527 531
-532 -44
-532 -530
44 530 532
-533 -531
-533 -532
531 532 533
-534 45
-534 -526
-45 526 534
-535 -45
-535 -533
45 533 535
-536 -534
-536 -535
534 535 536
-537 101
-537 -536
-101 536 537
-538 43
-538 -101
-43 101 538
-539 -537
-539 -538
537 538 539
-540 42
-540 -303
-42 303 540
-541 42
-541 43
-42 -43 541
-542 -43
-542 540
43 -540 542
-543 -541
-543 -542
541 542 543
-544 -43
-544 44
43 -44 544
-545 -44
-545 -543
44 543 545
-546 -544
-546 -545
544 545 546
-547 -42
-547 58
42 -58 547
-548 -42
-548 -547
42 547 548
-549 43
-549 -548
-43 548 549
-550 -44
-550 549
44 -549 550
-551 -531
-551 -550
531 550 551
-552 45
-552 -546
-45 546 552
-553 -45
-553 -551
45 551 553
-554 -552
-554 -553
552 553 554
-555 101
-555 -554
-101 554 555
-556 44
-556 -101
-44 101 556
-557 -555
-557 -556
555 556 557
-558 44
-558 -544
-44 544 558
-559 11
-559 42
-11 -42 559
-560 43
-560 559
-43 -559 560
-561 44
-561 560
-44 -560 561
-562 45
-562 -558
-45 558 562
-563 -45
-563 561
45 -561 563
-564 -562
-564 -563
562 563 564
-565 101
-565 -564
-101 564 565
-566 45
-566 -101
-45 101 566
-567 -565
-567 -566
565 566 567
-568 -47
-568 -140
47 140 568
-569 48
-569 140
-48 -140 569
-570 -48
-570 -568
48 568 570
-571 -569
-571 -570
569 570 571
-572 -12
-572 46
12 -46 572
-573 46
-573 -572
-46 572 573
-574 47
-574 -573
-47 573 574
-575 12
-575 -46
-12 46 575
-576 -47
-576 575
47 -575 576
-577 -195
-577 -576
195 576 577
-578 48
-578 574
-48 -574 578
-579 -48
-579 -577
48 577 579
-580 -578
-580 -579
578 579 580
-581 49
-581 -571
-49 571 581
-582 -49
-582 -580
49 580 582
-583 -581
-583 -582
581 582 583
-584 102
-584 -583
-102 583 584
-585 46
-585 -102
-46 102 585
-586 -584
-586 -585
584 585 586
-587 46
-587 303
-46 -303 587
-588 -47
-588 587
47 -587 588
-589 -195
-589 -588
195 588 589
-590 48
-590 137
-48 -137 590
-591 -48
-591 -589
48 589 591
-592 -590
-592 -591
590 591 592
-593 47
-593 -574
-47 574 593
-594 -46
-594 -58
46 58 594
-595 47
-595 594
-47 -594 595
-596 -137
-596 -595
137 595 596
-597 48
-597 -593
-48 593 597
-598 -48
-598 -596
48 596 598
-599 -597
-599 -598
597 598 599
-600 49
-600 -592
-49 592 600
-601 -49
-601 -599
49 599 601
-602 -600
-602 -601
600 601 602
-603 102
-603 -602
-102 602 603
-604 47
-604 -102
-47 102 604
-605 -603
-605 -604
603 604 605
-606 46
-606 -303
-46 303 606
-607 46
-607 47
-46 -47 607
-608 -47
-608 606
47 -606 608
-609 -607
-609 -608
607 608 609
-610 -47
-610 48
47 -48 610
-611 -48
-611 -609
48 609 611
-612 -610
-612 -611
610 611 612
-613 -46
-613 58
46 -58 613
-614 -46
-614 -613
46 613 614
-615 47
-615 -614
-47 614 615
-616 -48
-616 615
48 -615 616
-617 -597
-617 -616
597 616 617
-618 49
-618 -612
-49 612 618
-619 -49
-619 -617
49 617 619
-620 -618
-620 -619
618 619 620
-621 102
-621 -620
-102 620 621
-622 48
-622 -102
-48 102 622
-623 -621
-623 -622
621 622 623
-624 48
-624 -610
-48 610 624
-625 12
-625 46
-12 -46 625
-626 47
-626 625
-47 -625 626
-627 48
-627 626
-48 -626 627
-628 49
-628 -624
-49 624 628
-629 -49
-629 627
49 -627 629
-630 -628
-630 -629
628 629 630
-631 102
-631 -630
-102 630 631
-632 49
-632 -102
-49 102 632
-633 -631
-633 -632
631 632 633
-634 -51
-634 -148
51 148 634
-635 52
-635 148
-52 -148 635
-636 -52
-636 -634
52 634 636
-637 -635
-637 -636
635 636 637
-638 -13
-638 50
13 -50 638
-639 50
-639 -638
-50 638 639
-640 51
-640 -639
-51 639 640
-641 13
-641 -50
-13 50 641
-642 -51
-642 641
51 -641 642
-643 -202
-643 -642
202 642 643
-644 52
-644 640
-52 -640 644
-645 -52
-645 -643
52 643 645
-646 -644
-646 -645
644 645 646
-647 53
-647 -637
-53 637 647
-648 -53
-648 -646
53 646 648
-649 -647
-649 -648
647 648 649
-650 103
-650 -649
-103 649 650
-651 50
-651 -103
-50 103 651
-652 -650
-652 -651
650 651 652
-653 50
-653 303
-50 -303 653
-654 -51
-654 653
51 -653 654
-655 -202
-655 -654
202 654 655
-656 52
-656 145
-52 -145 656
-657 -52
-657 -655
52 655 657
-658 -656
-658 -657
656 657 658
-659 51
-659 -640
-51 640 659
-660 -50
-660 -58
50 58 660
-661 51
-661 660
-51 -660 661
-662 -145
-662 -661
145 661 662
-663 52
-663 -659
-52 659 663
-664 -52
-664 -662
52 662 664
-665 -663
-665 -664
663 664 665
-666 53
-666 -658
-53 658 666
-667 -53
-667 -665
53 665 667
-668 -666
-668 -667
666 667 668
-669 103
-669 -668
-103 668 669
-670 51
-670 -103
-51 103 670
-671 -669
-671 -670
669 670 671
-672 50
-672 -303
-50 303 672
-673 50
-673 51
-50 -51 673
-674 -51
-674 672
51 -672 674
-675 -673
-675 -674
673 674 675
-676 -51
-676 52
51 -52 676
-677 -52
-677 -675
52 675 677
-678 -676
-678 -677
676 677 678
-679 -50
-679 58
50 -58 679
-680 -50
-680 -679
50 679 680
-681 51
-681 -680
-51 680 681
-682 -52
-682 681
52 -681 682
-683 -663
-683 -682
663 682 683
-684 53
-684 -678
-53 678 684
-685 -53
-685 -683
53 683 685
-686 -684
-686 -685
684 685 686
-687 103
-687 -686
-103 686 687
-688 52
-688 -103
-52 103 688
-689 -687
-689 -688
687 688 689
-690 52
-690 -676
-52 676 690
-691 13
-691 50
-13 -50 691
-692 51
-692 691
-51 -691 692
-693 52
-693 692
-52 -692 693
-694 53
-694 -690
-53 690 694
-695 -53
-695 693
53 -693 695
-696 -694
-696 -695
694 695 696
-697 103
-697 -696
-103 696 697
-698 53
-698 -103
-53 103 698
-699 -697
-699 -698
697 698 699
-700 -55
-700 -156
55 156 700
-701 56
-701 156
-56 -156 701
-702 -56
-702 -700
56 700 702
-703 -701
-703 -702
701 702 703
-704 -14
-704 54
14 -54 704
-705 54
-705 -704
-54 704 705
-706 55
-706 -705
-55 705 706
-707 14
-707 -54
-14 54 707
-708 -55
-708 707
55 -707 708
-709 -209
-709 -708
209 708 709
-710 56
-710 706
-56 -706 710
-711 -56
-711 -709
56 709 711
-712 -710
-712 -711
710 711 712
-713 57
-713 -703
-57 703 713
-714 -57
-714 -712
57 712 714
-715 -713
-715 -714
713 714 715
-716 104
-716 -715
-104 715 716
-717 54
-717 -104
-54 104 717
-718 -716
-718 -717
716 717 718
-719 54
-719 303
-54 -303 719
-720 -55
-720 719
55 -719 720
-721 -209
-721 -720
209 720 721
-722 56
-722 153
-56 -153 722
-723 -56
-723 -721
56 721 723
-724 -722
-724 -723
722 723 724
-725 55
-725 -706
-55 706 725
-726 -54
-726 -58
54 58 726
-727 55
-727 726
-55 -726 727
-728 -153
-728 -727
153 727 728
-729 56
-729 -725
-56 725 729
-730 -56
-730 -728
56 728 730
-731 -729
-731 -730
729 730 731
-732 57
-732 -724
-57 724 732
-733 -57
-733 -731
57 731 733
-734 -732
-734 -733
732 733 734
-735 104
-735 -734
-104 734 735
-736 55
-736 -104
-55 104 736
-737 -735
-737 -736
735 736 737
-738 54
-738 -303
-54 303 738
-739 54
-739 55
-54 -55 739
-740 -55
-740 738
55 -738 740
-741 -739
-741 -740
739 740 741
-742 -55
-742 56
55 -56 742
-743 -56
-743 -741
56 741 743
-744 -742
-744 -743
742 743 744
-745 -54
-745 58
54 -58 745
-746 -54
-746 -745
54 745 746
-747 55
-747 -746
-55 746 747
-748 -56
-748 747
56 -747 748
-749 -729
-749 -748
729 748 749
-750 57
-750 -744
-57 744 750
-751 -57
-751 -749
57 749 751
-752 -750
-752 -751
750 751 752
-753 104
-753 -752
-104 752 753
-754 56
-754 -104
-56 104 754
-755 -753
-755 -754
753 754 755
-756 56
-756 -742
-56 742 756
-757 14
-757 54
-14 -54 757
-758 55
-758 757
-55 -757 758
-759 56
-759 758
-56 -758 759
-760 57
-760 -756
-57 756 760
-761 -57
-761 759
57 -759 761
-762 -760
-762 -761
760 761 762
-763 104
-763 -762
-104 762 763
-764 57
-764 -104
-57 104 764
-765 -763
-765 -764
763 764 765
-766 106
-766 343
-106 -343 766
-767 98
-767 766
-98 -766 767
-768 114
-768 409
-114 -409 768
-769 99
-769 768
-99 -768 769
-770 122
-770 475
-122 -475 770
-771 100
-771 770
-100 -770 771
-772 130
-772 541
-130 -541 772
-773 101
-773 772
-101 -772 773
-774 138
-774 607
-138 -607 774
-775 102
-775 774
-102 -774 775
-776 146
-776 673
-146 -673 776
-777 103
-777 776
-103 -776 777
-778 154
-778 739
-154 -739 778
-779 104
-779 778
-104 -778 779
-780 -767
-780 -769
767 769 780
-781 -771
-781 -773
771 773 781
-782 -775
-782 -777
775 777 782
-783 780
-783 781
-780 -781 783
-784 -779
-784 782
779 -782 784
-785 783
-785 784
-783 -784 785
-786 109
-786 167
-109 -167 786
-787 98
-787 786
-98 -786 787
-788 117
-788 174
-117 -174 788
-789 99
-789 788
-99 -788 789
-790 125
-790 181
-125 -181 790
-791 100
-791 790
-100 -790 791
-792 133
-792 188
-133 -188 792
-793 101
-793 792
-101 -792 793
-794 141
-794 195
-141 -195 794
-795 102
-795 794
-102 -794 795
-796 149
-796 202
-149 -202 796
-797 103
-797 796
-103 -796 797
-798 157
-798 209
-157 -209 798
-799 104
-799 798
-104 -798 799
-800 -787
-800 -789
787 789 800
-801 -791
-801 -793
791 793 801
-802 -795
-802 -797
795 797 802
-803 800
-803 801
-800 -801 803
-804 -799
-804 802
799 -802 804
-805 803
-805 804
-803 -804 805
-806 -58
-806 -805
58 805 806
-807 58
-807 805
-58 -805 807
-808 -806
-808 -807
806 807 808
-809 -58
-809 -785
58 785 809
-810 785
-810 -808
-785 808 810
-811 -809
-811 -810
809 810 811
-812 168
-812 343
-168 -343 812
-813 -23
-813 812
23 -812 813
-814 175
-814 409
-175 -409 814
-815 -24
-815 814
24 -814 815
-816 182
-816 475
-182 -475 816
-817 -25
-817 816
25 -816 817
-818 189
-818 541
-189 -541 818
-819 -26
-819 818
26 -818 819
-820 196
-820 607
-196 -607 820
-821 -27
-821 820
27 -820 821
-822 203
-822 673
-203 -673 822
-823 -28
-823 822
28 -822 823
-824 210
-824 739
-210 -739 824
-825 -29
-825 824
29 -824 825
-826 813
-826 -815
-813 815 826
-827 -813
-827 815
813 -815 827
-828 -826
-828 -827
826 827 828
-829 813
-829 815
-813 -815 829
-830 -817
-830 -828
817 828 830
-831 817
-831 828
-817 -828 831
-832 -830
-832 -831
830 831 832
-833 817
-833 -828
-817 828 833
-834 829
-834 -833
-829 833 834
-835 -829
-835 833
829 -833 835
-836 -834
-836 -835
834 835 836
-837 829
-837 833
-829 -833 837
-838 -819
-838 -832
819 832 838
-839 819
-839 832
-819 -832 839
-840 -838
-840 -839
838 839 840
-841 819
-841 -832
-819 832 841
-842 -837
-842 -840
837 840 842
-843 837
-843 840
-837 -840 843
-844 -842
-844 -843
842 843 844
-845 837
-845 -840
-837 840 845
-846 -841
-846 -845
841 845 846
-847 -836
-847 846
836 -846 847
-848 836
-848 -846
-836 846 848
-849 -847
-849 -848
847 848 849
-850 -836
-850 -846
836 846 850
-851 -821
-851 -844
821 844 851
-852 821
-852 844
-821 -844 852
-853 -851
-853 -852
851 852 853
-854 821
-854 -844
-821 844 854
-855 -849
-855 -854
849 854 855
-856 849
-856 854
-849 -854 856
-857 -855
-857 -856
855 856 857
-858 -849
-858 854
849 -854 858
-859 850
-859 -858
-850 858 859
-860 -850
-860 858
850 -858 860
-861 -859
-861 -860
859 860 861
-862 850
-862 858
-850 -858 862
-863 -823
-863 -853
823 853 863
-864 823
-864 853
-823 -853 864
-865 -863
-865 -864
863 864 865
-866 823
-866 -853
-823 853 866
-867 -862
-867 -865
862 865 867
-868 862
-868 865
-862 -865 868
-869 -867
-869 -868
867 868 869
-870 862
-870 -865
-862 865 870
-871 -866
-871 -870
866 870 871
-872 -857
-872 871
857 -871 872
-873 857
-873 -871
-857 871 873
-874 -872
-874 -873
872 873 874
-875 -857
-875 -871
857 871 875
-876 -861
-876 -875
861 875 876
-877 861
-877 875
-861 -875 877
-878 -876
-878 -877
876 877 878
-879 -861
-879 875
861 -875 879
-880 -825
-880 -869
825 869 880
-881 825
-881 869
-825 -869 881
-882 -880
-882 -881
880 881 882
-883 825
-883 -869
-825 869 883
-884 -879
-884 -882
879 882 884
-885 879
-885 882
-879 -882 885
-886 -884
-886 -885
884 885 886
-887 879
-887 -882
-879 882 887
-888 -883
-888 -887
883 887 888
-889 -874
-889 888
874 -888 889
-890 874
-890 -888
-874 888 890
-891 -889
-891 -890
889 890 891
-892 -874
-892 -888
874 888 892
-893 -878
-893 -892
878 892 893
-894 878
-894 892
-878 -892 894
-895 -893
-895 -894
893 894 895
-896 -878
-896 892
878 -892 896
-897 -891
-897 895
891 -895 897
-898 895
-898 -897
-895 897 898
-899 -58
-899 -303
58 303 899
-900 58
-900 -785
-58 785 900
-901 898
-901 -900
-898 900 901
-902 -806
-902 -899
806 899 902
-903 901
-903 902
-901 -902 903
-903
